graphite\(0\0\-1)\O
1.000000000000
    12.3000001907000005 0.0000000000000000 0.0000000000000000 
    -6.1500000954000003 10.6521126316999997 0.0000000000000000 
    0.0000000000000000 0.0000000000000000 20.3885993958000000 
  C   N  Ru   O 
 44   4   1   1 
Selected dymanics
Direct
0.0044930599890385 0.0030621673109176 0.0192298223046226 F F F 
0.0737701208930874 0.1369222239157755 0.0181147532171781 F F F 
0.0044900209969518 0.2016343345803016 0.0191919969455554 F F F 
0.0683977216437561 0.3344112804630012 0.0183710526203862 F F F 
-0.0015899434716959 0.3991140175383794 0.0183847586001334 F F F 
0.0623020865627817 0.5319443514948613 0.0192073701456397 F F F 
-0.0070013769623552 0.5965387231613778 0.0180661905706218 F F F 
0.0623077048068268 0.7305678755047758 0.0191686878470725 F F F 
-0.0016233775170464 0.7994237922286970 0.0183534146495422 F F F 
0.0683664889573003 0.9341123554664265 0.0184019954871481 F F F 
0.2023949467586652 0.0003089626962688 0.0168231845806115 F F F 
0.2741924110052436 0.1342405083002771 0.0156718713781531 F F F 
0.2098795145018407 0.2050278755060516 0.0164650914197035 F F F 
0.2741322009032748 0.3400884030853274 0.0155571474729792 F F F 
0.2024107759227775 0.4023154848936171 0.0167490997295197 F F F 
0.2652980615151486 0.5355088671918281 0.0176735579752972 F F F 
0.1965577801165831 0.5993863662447563 0.0202893168963954 F F F 
0.2642628931915468 0.7322002125038944 0.0213934589648888 F F F 
0.1965764442101336 0.7973206704812740 0.0202582445135246 F F F 
0.2653071218866867 0.9300025249331116 0.0177093316269415 F F F 
0.3987620369289930 -0.0054421334308937 0.0163066620060031 F F F 
0.4664769826917973 0.1252013451851040 0.0138441596037335 F F F 
0.4664960956261029 0.5414502945064470 0.0135587762281455 F F F 
0.3986642341103980 0.6043574847153222 0.0162160558619022 F F F 
0.4667401137856769 0.7361529198427582 0.0201302564814999 F F F 
0.3980583006266145 0.7991082817842373 0.0218169269354112 F F F 
0.4666883983666598 0.9307894752057493 0.0200924772801172 F F F 
0.6000734144439183 -0.0024928742899262 0.0200954327057441 F F F 
0.6680511226258691 0.1292236148409467 0.0162908766537313 F F F 
0.6002654970332194 0.1920954252153907 0.0138282451348463 F F F 
0.6002416464540764 0.6083201759730053 0.0135427730792941 F F F 
0.6681491261543482 0.7390774550327950 0.0162004248686923 F F F 
0.6000227581095388 0.8027675698478851 0.0201344508833393 F F F 
0.6686828593828510 0.9344204451515378 0.0218261226395693 F F F 
0.8024749411393564 0.0013063103744792 0.0214150364181812 F F F 
0.8702157719062222 0.1341031587578855 0.0202535415399356 F F F 
0.8014975261009147 0.1980817993379420 0.0176654819636700 F F F 
0.8643900142445249 0.3313032090807912 0.0167693993437692 F F F 
0.7925526805782368 0.3934067092878559 0.0156122313761049 F F F 
0.8568587582452518 0.5285158216319669 0.0164048494105542 F F F 
0.7926151992609100 0.5993412641319115 0.0154986345498053 F F F 
0.8643772255735084 0.7333013684764116 0.0166955217644980 F F F 
0.8015066791807810 0.8036317512358446 0.0176303910800578 F F F 
0.8702396286749953 0.9362668149830936 0.0202832362512084 F F F 
0.4041940586205855 0.1924505154353571 0.0161534140125907 F F F 
0.4040889962386571 0.4119124453469248 0.0158468863903328 F F F 
0.6625445124362636 0.3216286699202120 0.0161021634583282 F F F 
0.6626452889005923 0.5411882512303358 0.0157990953347679 F F F 
0.5334367284846110 0.3669165039674848 0.0352411626757328 F F F 
0.5335851151639561 0.3676853157202236 0.1206150141225083 T T T 
